
n_res = 4;
rcap = [30, 33, 250, 271];
rtype = [1, 1, 2, 2];
n_tasks = 50;
modes =  [{1, 2, 3}, {4, 5, 6}, {7, 8, 9}, {10, 11, 12}, {13, 14, 15}, {16, 17, 18}, {19, 20, 21}, {22, 23, 24}, {25, 26, 27}, {28, 29, 30}, {31, 32, 33}, {34, 35, 36}, {37, 38, 39}, {40, 41, 42}, {43, 44, 45}, {46, 47, 48}, {49, 50, 51}, {52, 53, 54}, {55, 56, 57}, {58, 59, 60}, {61, 62, 63}, {64, 65, 66}, {67, 68, 69}, {70, 71, 72}, {73, 74, 75}, {76, 77, 78}, {79, 80, 81}, {82, 83, 84}, {85, 86, 87}, {88, 89, 90}, {91, 92, 93}, {94, 95, 96}, {97, 98, 99}, {100, 101, 102}, {103, 104, 105}, {106, 107, 108}, {109, 110, 111}, {112, 113, 114}, {115, 116, 117}, {118, 119, 120}, {121, 122, 123}, {124, 125, 126}, {127, 128, 129}, {130, 131, 132}, {133, 134, 135}, {136, 137, 138}, {139, 140, 141}, {142, 143, 144}, {145, 146, 147}, {148, 149, 150}];
succ =  [{24, 20, 19, 16, 15, 14, 8}, {18, 15, 14, 12, 10, 7}, {36, 24, 21, 20, 19, 12}, {36, 20, 12, 7}, {23, 12, 7}, {36, 35, 32, 28, 22, 21, 20, 18}, {29, 28, 25, 19, 17}, {40, 39, 36, 35, 29, 28, 23, 17}, {41, 32, 31, 30, 25, 24, 22, 20}, {40, 39, 30, 28, 27, 25, 17}, {41, 34, 32, 29, 26, 25, 18}, {40, 39, 29, 28, 25, 17}, {35, 32, 31, 30, 23, 22, 20}, {41, 39, 35, 31, 30, 29, 27, 22}, {50, 41, 40, 36, 34, 32, 26, 25}, {50, 49, 39, 38, 35, 32, 31, 28, 27}, {47, 41, 32, 31, 26, 22}, {50, 40, 39, 38, 31, 30, 27}, {44, 40, 39, 38, 32, 30, 27}, {49, 39, 38, 34, 29, 27}, {48, 47, 41, 38, 37, 33, 31, 30}, {50, 49, 43, 38, 34, 33}, {49, 47, 44, 27}, {44, 40, 27}, {48, 43, 38, 35, 33}, {49, 44, 43, 38, 37, 33}, {48, 43, 37, 33}, {47, 46, 45, 44, 43, 42}, {47, 46, 44, 43, 37}, {49, 46, 45, 43, 42}, {45, 44, 43, 42}, {48, 46, 45, 42}, {46, 45, 42}, {48, 44}, {47, 44}, {49, 43}, {42}, {42}, {43}, {47}, {44}, {}, {}, {}, {}, {}, {}, {}, {}, {}];
n_opt = 150;
dur = [5, 7, 9, 2, 4, 6, 5, 6, 8, 3, 6, 10, 7, 8, 10, 3, 5, 10, 2, 6, 9, 3, 5, 7, 2, 4, 9, 1, 3, 5, 2, 2, 3, 1, 8, 9, 2, 6, 6, 6, 9, 10, 2, 4, 10, 1, 7, 10, 3, 6, 7, 1, 3, 4, 2, 5, 9, 5, 7, 9, 4, 8, 9, 1, 3, 3, 5, 9, 10, 1, 4, 9, 4, 6, 9, 1, 8, 9, 1, 2, 10, 2, 9, 10, 1, 7, 10, 6, 6, 9, 3, 3, 8, 1, 4, 6, 4, 8, 9, 2, 10, 10, 1, 4, 7, 3, 4, 4, 2, 3, 3, 1, 4, 6, 3, 4, 8, 4, 5, 8, 4, 5, 6, 2, 3, 5, 3, 6, 10, 1, 1, 2, 3, 6, 7, 4, 7, 8, 2, 4, 8, 3, 8, 9, 2, 6, 10, 2, 5, 7];
rreq = [|8, 0, 0, 0, 0, 0, 10, 6, 5, 0, 0, 0, 6, 5, 0, 6, 4, 0, 0, 7, 0, 0, 5, 0, 9, 9, 0, 2, 0, 2, 0, 8, 0, 9, 6, 4, 0, 3, 0, 6, 0, 0, 3, 1, 0, 8, 0, 2, 0, 3, 3, 0, 0, 0, 0, 0, 0, 0, 0, 0, 8, 0, 0, 0, 7, 0, 0, 0, 0, 6, 0, 1, 0, 0, 0, 6, 3, 0, 0, 4, 0, 9, 0, 0, 0, 8, 7, 0, 7, 6, 0, 4, 3, 6, 0, 5, 6, 0, 2, 8, 0, 7, 7, 4, 1, 0, 3, 0, 0, 4, 0, 5, 3, 0, 7, 0, 3, 6, 6, 0, 5, 4, 3, 0, 0, 2, 0, 5, 0, 1, 0, 1, 10, 9, 9, 3, 0, 1, 5, 4, 0, 0, 9, 0, 7, 0, 0, 0, 0, 0
 |0, 4, 4, 6, 4, 4, 0, 0, 0, 3, 2, 2, 0, 0, 8, 0, 0, 7, 7, 0, 7, 6, 0, 2, 0, 0, 9, 0, 6, 0, 1, 0, 1, 0, 0, 0, 9, 0, 6, 0, 9, 9, 0, 0, 2, 0, 5, 0, 8, 0, 0, 5, 4, 4, 10, 8, 8, 7, 4, 3, 0, 1, 1, 4, 0, 3, 9, 9, 7, 0, 5, 0, 3, 1, 1, 0, 0, 1, 8, 0, 7, 0, 2, 2, 8, 0, 0, 7, 0, 0, 8, 0, 0, 0, 2, 0, 0, 8, 0, 0, 4, 0, 0, 0, 0, 10, 0, 9, 10, 0, 2, 0, 0, 7, 0, 2, 0, 0, 0, 2, 0, 0, 0, 4, 3, 0, 9, 0, 4, 0, 2, 0, 0, 0, 0, 0, 5, 0, 0, 0, 2, 6, 0, 6, 0, 5, 5, 8, 5, 4
 |8, 8, 7, 5, 4, 4, 7, 7, 7, 9, 8, 8, 8, 7, 6, 8, 8, 8, 5, 4, 1, 3, 1, 1, 5, 4, 4, 5, 4, 2, 2, 2, 2, 9, 9, 7, 7, 5, 5, 8, 3, 1, 9, 6, 4, 7, 4, 1, 3, 2, 1, 9, 7, 6, 6, 5, 5, 2, 2, 2, 9, 4, 3, 3, 3, 1, 5, 4, 4, 2, 2, 2, 7, 7, 7, 5, 5, 3, 10, 8, 8, 4, 3, 2, 5, 5, 4, 6, 6, 2, 4, 3, 3, 5, 4, 4, 4, 4, 4, 4, 4, 3, 5, 4, 3, 6, 5, 4, 10, 9, 7, 5, 5, 2, 9, 6, 3, 9, 5, 4, 10, 8, 7, 5, 3, 3, 9, 5, 4, 3, 3, 3, 9, 7, 7, 5, 3, 1, 5, 3, 2, 5, 4, 4, 5, 5, 3, 8, 8, 6
 |9, 6, 1, 9, 8, 7, 2, 1, 1, 9, 8, 7, 10, 4, 1, 3, 2, 2, 8, 7, 6, 9, 3, 3, 5, 4, 4, 5, 4, 1, 9, 7, 6, 4, 4, 4, 9, 7, 3, 7, 6, 6, 9, 9, 9, 9, 8, 8, 8, 5, 4, 7, 7, 4, 5, 4, 2, 2, 2, 2, 8, 8, 6, 3, 3, 3, 9, 7, 7, 7, 5, 2, 4, 4, 3, 5, 3, 2, 4, 4, 4, 9, 9, 7, 6, 4, 4, 2, 2, 1, 7, 6, 6, 4, 4, 4, 8, 6, 4, 9, 9, 9, 10, 8, 8, 2, 2, 2, 9, 7, 5, 6, 6, 6, 1, 1, 1, 6, 3, 3, 6, 5, 3, 5, 5, 5, 5, 5, 5, 9, 9, 8, 7, 5, 4, 7, 5, 5, 8, 8, 8, 8, 6, 4, 8, 5, 4, 3, 3, 3|];